NAME        
ROWS
 N  NoObj   
 E  r0      
 E  r1      
 E  r2      
 E  r3      
 E  r4      
 E  r5      
 E  r6      
 E  r7      
 E  r8      
 E  r9      
 E  r10     
 E  r11     
 G  r12     
 G  r13     
 G  r14     
 G  r15     
 G  r16     
 G  r17     
 G  r18     
 G  r19     
 E  r20     
 E  r21     
 E  r22     
 E  r23     
 E  r24     
 E  r25     
 E  r26     
 E  r27     
 E  r28     
 E  r29     
 E  r30     
 E  r31     
COLUMNS
    MARK0000  'MARKER'                 'INTORG'
    c0        r0        1
    c0        r12       -1
    c0        r21       -1
    c0        r22       1
    c0        r23       1
    c0        r24       -1
    c0        r25       -1
    c0        r26       -1
    c0        r27       -1
    c0        r28       -1
    c0        r29       -1
    c0        r30       1
    c0        r31       1
    c1        r1        1
    c1        r12       1
    c1        r13       -1
    c1        r21       -1
    c1        r22       1
    c1        r23       1
    c1        r24       -1
    c1        r25       -1
    c1        r26       -1
    c1        r27       -1
    c1        r28       -1
    c1        r29       -1
    c1        r30       1
    c1        r31       1
    c2        r2        1
    c2        r13       1
    c2        r21       -1
    c2        r22       1
    c2        r23       1
    c2        r24       -1
    c2        r25       -1
    c2        r26       -1
    c2        r27       -1
    c2        r28       -1
    c2        r29       -1
    c2        r30       1
    c2        r31       1
    c3        r3        1
    c3        r14       -1
    c3        r21       -1
    c3        r22       1
    c3        r23       1
    c3        r24       -1
    c3        r25       1
    c3        r26       -1
    c3        r27       1
    c3        r28       1
    c3        r29       -1
    c3        r30       1
    c3        r31       -1
    c4        r4        1
    c4        r14       1
    c4        r15       -1
    c4        r21       -1
    c4        r22       1
    c4        r23       1
    c4        r24       -1
    c4        r25       1
    c4        r26       -1
    c4        r27       1
    c4        r28       1
    c4        r29       -1
    c4        r30       1
    c4        r31       -1
    c5        r5        1
    c5        r15       1
    c5        r21       -1
    c5        r22       1
    c5        r23       1
    c5        r24       -1
    c5        r25       1
    c5        r26       -1
    c5        r27       1
    c5        r28       1
    c5        r29       -1
    c5        r30       1
    c5        r31       -1
    c6        r6        1
    c6        r16       -1
    c6        r21       -1
    c6        r22       1
    c6        r23       1
    c6        r24       1
    c6        r25       -1
    c6        r26       -1
    c6        r27       1
    c6        r28       1
    c6        r29       -1
    c6        r30       -1
    c6        r31       1
    c7        r7        1
    c7        r16       1
    c7        r17       -1
    c7        r21       -1
    c7        r22       1
    c7        r23       1
    c7        r24       1
    c7        r25       -1
    c7        r26       -1
    c7        r27       1
    c7        r28       1
    c7        r29       -1
    c7        r30       -1
    c7        r31       1
    c8        r8        1
    c8        r17       1
    c8        r21       -1
    c8        r22       1
    c8        r23       1
    c8        r24       1
    c8        r25       -1
    c8        r26       -1
    c8        r27       1
    c8        r28       1
    c8        r29       -1
    c8        r30       -1
    c8        r31       1
    c9        r9        1
    c9        r18       -1
    c9        r21       -1
    c9        r22       1
    c9        r23       1
    c9        r24       1
    c9        r25       1
    c9        r26       -1
    c9        r27       -1
    c9        r28       -1
    c9        r29       -1
    c9        r30       -1
    c9        r31       -1
    c10       r10       1
    c10       r18       1
    c10       r19       -1
    c10       r21       -1
    c10       r22       1
    c10       r23       1
    c10       r24       1
    c10       r25       1
    c10       r26       -1
    c10       r27       -1
    c10       r28       -1
    c10       r29       -1
    c10       r30       -1
    c10       r31       -1
    c11       r11       1
    c11       r19       1
    c11       r21       -1
    c11       r22       1
    c11       r23       1
    c11       r24       1
    c11       r25       1
    c11       r26       -1
    c11       r27       -1
    c11       r28       -1
    c11       r29       -1
    c11       r30       -1
    c11       r31       -1
    c12       r0        1
    c12       r20       1
    c13       r1        1
    c13       r20       1
    c14       r2        1
    c14       r20       1
    c15       r3        1
    c15       r20       1
    c16       r4        1
    c16       r20       1
    c17       r5        1
    c17       r20       1
    c18       r6        1
    c18       r20       1
    c19       r7        1
    c19       r20       1
    c20       r8        1
    c20       r20       1
    c21       r9        1
    c21       r20       1
    c22       r10       1
    c22       r20       1
    c23       r11       1
    c23       r20       1
    c24       r0        1
    c24       r12       1
    c24       r21       1
    c24       r22       1
    c24       r23       1
    c24       r24       1
    c24       r25       1
    c24       r26       1
    c24       r27       1
    c24       r28       1
    c24       r29       1
    c24       r30       1
    c24       r31       1
    c25       r1        1
    c25       r12       -1
    c25       r13       1
    c25       r21       1
    c25       r22       1
    c25       r23       1
    c25       r24       1
    c25       r25       1
    c25       r26       1
    c25       r27       1
    c25       r28       1
    c25       r29       1
    c25       r30       1
    c25       r31       1
    c26       r2        1
    c26       r13       -1
    c26       r21       1
    c26       r22       1
    c26       r23       1
    c26       r24       1
    c26       r25       1
    c26       r26       1
    c26       r27       1
    c26       r28       1
    c26       r29       1
    c26       r30       1
    c26       r31       1
    c27       r3        1
    c27       r14       1
    c27       r21       1
    c27       r22       1
    c27       r23       1
    c27       r24       1
    c27       r25       -1
    c27       r26       1
    c27       r27       -1
    c27       r28       -1
    c27       r29       1
    c27       r30       1
    c27       r31       -1
    c28       r4        1
    c28       r14       -1
    c28       r15       1
    c28       r21       1
    c28       r22       1
    c28       r23       1
    c28       r24       1
    c28       r25       -1
    c28       r26       1
    c28       r27       -1
    c28       r28       -1
    c28       r29       1
    c28       r30       1
    c28       r31       -1
    c29       r5        1
    c29       r15       -1
    c29       r21       1
    c29       r22       1
    c29       r23       1
    c29       r24       1
    c29       r25       -1
    c29       r26       1
    c29       r27       -1
    c29       r28       -1
    c29       r29       1
    c29       r30       1
    c29       r31       -1
    c30       r6        1
    c30       r16       1
    c30       r21       1
    c30       r22       1
    c30       r23       1
    c30       r24       -1
    c30       r25       1
    c30       r26       1
    c30       r27       -1
    c30       r28       -1
    c30       r29       1
    c30       r30       -1
    c30       r31       1
    c31       r7        1
    c31       r16       -1
    c31       r17       1
    c31       r21       1
    c31       r22       1
    c31       r23       1
    c31       r24       -1
    c31       r25       1
    c31       r26       1
    c31       r27       -1
    c31       r28       -1
    c31       r29       1
    c31       r30       -1
    c31       r31       1
    c32       r8        1
    c32       r17       -1
    c32       r21       1
    c32       r22       1
    c32       r23       1
    c32       r24       -1
    c32       r25       1
    c32       r26       1
    c32       r27       -1
    c32       r28       -1
    c32       r29       1
    c32       r30       -1
    c32       r31       1
    c33       r9        1
    c33       r18       1
    c33       r21       1
    c33       r22       1
    c33       r23       1
    c33       r24       -1
    c33       r25       -1
    c33       r26       1
    c33       r27       1
    c33       r28       1
    c33       r29       1
    c33       r30       -1
    c33       r31       -1
    c34       r10       1
    c34       r18       -1
    c34       r19       1
    c34       r21       1
    c34       r22       1
    c34       r23       1
    c34       r24       -1
    c34       r25       -1
    c34       r26       1
    c34       r27       1
    c34       r28       1
    c34       r29       1
    c34       r30       -1
    c34       r31       -1
    c35       r11       1
    c35       r19       -1
    c35       r21       1
    c35       r22       1
    c35       r23       1
    c35       r24       -1
    c35       r25       -1
    c35       r26       1
    c35       r27       1
    c35       r28       1
    c35       r29       1
    c35       r30       -1
    c35       r31       -1
    MARK0001  'MARKER'                 'INTEND'
RHS
    RHS_V     r0        1
    RHS_V     r1        1
    RHS_V     r2        1
    RHS_V     r3        1
    RHS_V     r4        1
    RHS_V     r5        1
    RHS_V     r6        1
    RHS_V     r7        1
    RHS_V     r8        1
    RHS_V     r9        1
    RHS_V     r10       1
    RHS_V     r11       1
    RHS_V     r22       12
    RHS_V     r23       12
BOUNDS
 BV BOUND     c0      
 BV BOUND     c1      
 BV BOUND     c2      
 BV BOUND     c3      
 BV BOUND     c4      
 BV BOUND     c5      
 BV BOUND     c6      
 BV BOUND     c7      
 BV BOUND     c8      
 BV BOUND     c9      
 BV BOUND     c10     
 BV BOUND     c11     
 BV BOUND     c12     
 BV BOUND     c13     
 BV BOUND     c14     
 BV BOUND     c15     
 BV BOUND     c16     
 BV BOUND     c17     
 BV BOUND     c18     
 BV BOUND     c19     
 BV BOUND     c20     
 BV BOUND     c21     
 BV BOUND     c22     
 BV BOUND     c23     
 BV BOUND     c24     
 BV BOUND     c25     
 BV BOUND     c26     
 BV BOUND     c27     
 BV BOUND     c28     
 BV BOUND     c29     
 BV BOUND     c30     
 BV BOUND     c31     
 BV BOUND     c32     
 BV BOUND     c33     
 BV BOUND     c34     
 BV BOUND     c35     
ENDATA
